50228 48 58753 291848 54482 1
49954 44 53857 310482 55498 0.94
49890 45 55081 286038 55502 0.96
50216 44 53857 278659 54852 0.96
49260 55 67321 404015 55074 0.96
49676 49 59977 296004 55428 0.98
49948 45 55081 268644 56000 0.96
49882 43 52633 280137 55942 0.98
49410 42 51409 271105 56448 0.96
49662 52 63649 319613 54778 0.96
